rup/random_table_5vars_114.rup
217:5 9 7 1 11 14 16 211
218:5 9 7 1 11 14 16 211 19 21 24 26 29 31 34 36 40 46 79 87 120 128 161 169 202 215 59
219:128 5 9 7 1 11 14 16 19 21 24 26 29 31 161 34 36 40 169 46 202 79 211 87 120 206 218
220:128 5 14 9 19 161 169 46 202 79 211 18
221:128 5 14 9 18 19 24 161 169 46 202 79 211 87 215 59
222:128 5 14 9 18 19 24 161 169 46 202 79 211 206 221
223:128 5 19 211
224:128 5 19 11 7 9 14 24 161 169 46 202 79 211 87 215 59
225:128 5 19 11 7 9 14 24 161 169 46 202 79 211 206 224
226:128 5 161 169 46 202 79 211 209
227:128 5 161 169 46 202 79 87 215 59
228:128 5 161 169 46 202 79 87 120 38 50 48 42 52 59 215 206 226
229:128 5 161 38 169 46 202 79 211 209
230:128 5 161 38 169 46 202 79 87 215 59
231:128 5 161 38 169 46 202 79 87 120 55 50 59 215 206 229
232:128 5 161 38 169 46 202 79 211 209
233:128 5 161 38 169 46 202 79 87 215 59
234:128 5 161 38 169 46 202 79 87 120 60 52 48 50 55 215 206 232
235:128 5 161 38 169 46 202 79 211 209
236:128 5 161 38 169 46 202 79 87 215 59
237:128 5 161 38 169 46 202 79 87 120 65 59 52 48 50 55 60 215 206 235
238:128 5 161 38 169 46 202 79 211 209
239:128 5 161 38 169 46 202 79 87 215 59
240:128 5 161 38 169 46 202 79 87 120 70 65 62 48 50 64 59 55 60 215 206 238
241:128 5 161 38 169 46 202 79 211 209
242:128 5 161 38 169 46 202 79 87 215 59
243:128 5 161 38 169 46 202 79 87 120 75 70 67 48 50 43 53 55 215 206 241
244:128 5 161 38 169 46 202 79 211 81
245:128 5 161 38 169 46 202 79 81 75 211 87 215 59
246:128 5 161 38 169 46 202 79 87 120 219 10 6 222 15 225 20 228 51 47 231 56 215 206 211 209
247:246
248:246
249:246
250:246
251:246
252:246
253:246
254:246
255:246
256:246
257:246
258:246
259:246
260:246
261:246
262:246
263:246
264:246
265:246
266:246
267:246
268:246
269:215
270:246
271:246
272:246
273:246
274:246
275:246
276:246
277:246
278:246
279:246
280:246
281:246
282:246
283:246
284:246
285:246
286:246
287:246
288:246
289:246
290:246
291:246
292:246
293:246
